NAME          DCAP_3_4_2_300_SS209
ROWS
 N  OBJ
 L  CON1
 L  CON2
 L  CON3
 L  CON4
 L  CON5
 L  CON6
 L  CON7
 L  CON8
 L  CON9
 L  CON10
 L  CON11
 L  CON12
 E  CON13
 E  CON14
 E  CON15
 E  CON16
 E  CON17
 E  CON18
 E  CON19
 E  CON20
COLUMNS
    x[1,1]    OBJ       6.180167      CON1      1.000000    
    x[1,1]    CON7      -1.000000     CON8      -1.000000   
    x[1,2]    OBJ       5.039546      CON2      1.000000    
    x[1,2]    CON8      -1.000000   
    x[2,1]    OBJ       6.732585      CON3      1.000000    
    x[2,1]    CON9      -1.000000     CON10     -1.000000   
    x[2,2]    OBJ       7.443064      CON4      1.000000    
    x[2,2]    CON10     -1.000000   
    x[3,1]    OBJ       6.563535      CON5      1.000000    
    x[3,1]    CON11     -1.000000     CON12     -1.000000   
    x[3,2]    OBJ       6.054841      CON6      1.000000    
    x[3,2]    CON12     -1.000000   
    MARKER    'MARKER'                'INTORG'
    u[1,1]    OBJ       48.076654     CON1      -1.000000   
    u[1,2]    OBJ       49.466655     CON2      -1.000000   
    u[2,1]    OBJ       49.996186     CON3      -1.000000   
    u[2,2]    OBJ       32.230043     CON4      -1.000000   
    u[3,1]    OBJ       20.066487     CON5      -1.000000   
    u[3,2]    OBJ       27.484319     CON6      -1.000000   
    y[1,1,1]  OBJ       7.132058      CON7      1.284995    
    y[1,1,1]  CON13     1.000000    
    y[1,1,2]  OBJ       9.390326      CON8      0.819370    
    y[1,1,2]  CON14     1.000000    
    y[1,2,1]  OBJ       8.867927      CON7      0.859349    
    y[1,2,1]  CON15     1.000000    
    y[1,2,2]  OBJ       5.521751      CON8      1.423125    
    y[1,2,2]  CON16     1.000000    
    y[1,3,1]  OBJ       6.780249      CON7      1.109163    
    y[1,3,1]  CON17     1.000000    
    y[1,3,2]  OBJ       7.081989      CON8      1.360851    
    y[1,3,2]  CON18     1.000000    
    y[1,4,1]  OBJ       8.854710      CON7      1.023306    
    y[1,4,1]  CON19     1.000000    
    y[1,4,2]  OBJ       7.453689      CON8      0.675280    
    y[1,4,2]  CON20     1.000000    
    y[2,1,1]  OBJ       6.661428      CON9      1.284995    
    y[2,1,1]  CON13     1.000000    
    y[2,1,2]  OBJ       7.872995      CON10     0.819370    
    y[2,1,2]  CON14     1.000000    
    y[2,2,1]  OBJ       6.681497      CON9      0.859349    
    y[2,2,1]  CON15     1.000000    
    y[2,2,2]  OBJ       8.522933      CON10     1.423125    
    y[2,2,2]  CON16     1.000000    
    y[2,3,1]  OBJ       9.972710      CON9      1.109163    
    y[2,3,1]  CON17     1.000000    
    y[2,3,2]  OBJ       7.084085      CON10     1.360851    
    y[2,3,2]  CON18     1.000000    
    y[2,4,1]  OBJ       5.135525      CON9      1.023306    
    y[2,4,1]  CON19     1.000000    
    y[2,4,2]  OBJ       5.934435      CON10     0.675280    
    y[2,4,2]  CON20     1.000000    
    y[3,1,1]  OBJ       8.852613      CON11     1.284995    
    y[3,1,1]  CON13     1.000000    
    y[3,1,2]  OBJ       9.446715      CON12     0.819370    
    y[3,1,2]  CON14     1.000000    
    y[3,2,1]  OBJ       8.470375      CON11     0.859349    
    y[3,2,1]  CON15     1.000000    
    y[3,2,2]  OBJ       9.639063      CON12     1.423125    
    y[3,2,2]  CON16     1.000000    
    y[3,3,1]  OBJ       5.362443      CON11     1.109163    
    y[3,3,1]  CON17     1.000000    
    y[3,3,2]  OBJ       8.855800      CON12     1.360851    
    y[3,3,2]  CON18     1.000000    
    y[3,4,1]  OBJ       8.728868      CON11     1.023306    
    y[3,4,1]  CON19     1.000000    
    y[3,4,2]  OBJ       9.573295      CON12     0.675280    
    y[3,4,2]  CON20     1.000000    
    z[1,1]    OBJ       746.981929    CON13     1.000000    
    z[1,2]    OBJ       534.380868    CON14     1.000000    
    z[2,1]    OBJ       623.211170    CON15     1.000000    
    z[2,2]    OBJ       728.454271    CON16     1.000000    
    z[3,1]    OBJ       921.164084    CON17     1.000000    
    z[3,2]    OBJ       553.831458    CON18     1.000000    
    z[4,1]    OBJ       840.108081    CON19     1.000000    
    z[4,2]    OBJ       601.964319    CON20     1.000000    
    MARKER    'MARKER'                 'INTEND'
RHS
    RHS       CON1      -0.000000     CON2      -0.000000   
    RHS       CON3      -0.000000     CON4      -0.000000   
    RHS       CON5      -0.000000     CON6      -0.000000   
    RHS       CON7      -0.000000     CON8      -0.000000   
    RHS       CON9      -0.000000     CON10     -0.000000   
    RHS       CON11     -0.000000     CON12     -0.000000   
    RHS       CON13     1.000000      CON14     1.000000    
    RHS       CON15     1.000000      CON16     1.000000    
    RHS       CON17     1.000000      CON18     1.000000    
    RHS       CON19     1.000000      CON20     1.000000    
BOUNDS
 BV BOUND     u[1,1]  
 BV BOUND     u[1,2]  
 BV BOUND     u[2,1]  
 BV BOUND     u[2,2]  
 BV BOUND     u[3,1]  
 BV BOUND     u[3,2]  
 BV BOUND     y[1,1,1]
 BV BOUND     y[1,1,2]
 BV BOUND     y[1,2,1]
 BV BOUND     y[1,2,2]
 BV BOUND     y[1,3,1]
 BV BOUND     y[1,3,2]
 BV BOUND     y[1,4,1]
 BV BOUND     y[1,4,2]
 BV BOUND     y[2,1,1]
 BV BOUND     y[2,1,2]
 BV BOUND     y[2,2,1]
 BV BOUND     y[2,2,2]
 BV BOUND     y[2,3,1]
 BV BOUND     y[2,3,2]
 BV BOUND     y[2,4,1]
 BV BOUND     y[2,4,2]
 BV BOUND     y[3,1,1]
 BV BOUND     y[3,1,2]
 BV BOUND     y[3,2,1]
 BV BOUND     y[3,2,2]
 BV BOUND     y[3,3,1]
 BV BOUND     y[3,3,2]
 BV BOUND     y[3,4,1]
 BV BOUND     y[3,4,2]
 BV BOUND     z[1,1]  
 BV BOUND     z[1,2]  
 BV BOUND     z[2,1]  
 BV BOUND     z[2,2]  
 BV BOUND     z[3,1]  
 BV BOUND     z[3,2]  
 BV BOUND     z[4,1]  
 BV BOUND     z[4,2]  
ENDATA
